c NeuroCodeBench 2.0 CNF formula with verdict Unsat
p cnf 10 13
-1 7 2 9 0
-1 -7 -4 -6 0
-1 -7 -4 6 0
1 4 -10 0
-1 7 -2 10 0
1 -4 -9 0
-1 -7 4 0
1 4 10 5 0
1 4 10 -5 2 0
1 4 10 -5 -2 0
-1 7 2 -9 0
1 -4 9 0
-1 7 -2 -10 0
